<number of tasks>
100

<cycle time>
1000

<order strength>
0.896


<task times>
1 234
2 94
3 89
4 143
5 134
6 48
7 184
8 20
9 60
10 202
11 56
12 301
13 181
14 98
15 291
16 221
17 262
18 103
19 314
20 56
21 50
22 69
23 338
24 177
25 246
26 291
27 150
28 28
29 123
30 271
31 62
32 71
33 277
34 34
35 94
36 80
37 209
38 97
39 91
40 58
41 133
42 187
43 103
44 82
45 112
46 263
47 155
48 299
49 195
50 185
51 123
52 44
53 166
54 51
55 52
56 344
57 58
58 88
59 26
60 51
61 81
62 44
63 194
64 155
65 130
66 88
67 151
68 36
69 368
70 262
71 132
72 171
73 254
74 134
75 282
76 255
77 79
78 59
79 82
80 224
81 251
82 257
83 59
84 301
85 81
86 93
87 217
88 149
89 135
90 187
91 57
92 54
93 176
94 151
95 52
96 97
97 110
98 165
99 166
100 148

<precedence relations>
1,6
1,7
1,8
2,6
2,7
2,8
3,6
3,7
3,8
4,6
4,7
4,8
5,6
5,7
5,8
6,9
6,10
6,11
7,9
7,10
7,11
8,9
8,10
8,11
9,12
9,13
10,12
10,13
11,12
11,13
12,14
12,15
12,16
13,14
13,15
13,16
14,17
14,18
14,19
15,17
15,18
15,19
16,17
16,18
16,19
17,20
17,21
17,22
18,20
18,21
18,22
19,20
19,21
19,22
20,23
20,24
20,25
21,23
21,24
21,25
22,23
22,24
22,25
23,26
23,27
23,28
24,26
24,27
24,28
25,26
25,27
25,28
26,29
26,30
26,31
27,29
27,30
27,31
28,29
28,30
28,31
29,32
29,33
29,34
30,32
30,33
30,34
31,32
31,33
31,34
32,35
32,36
32,37
33,35
33,36
33,37
34,35
34,36
34,37
35,38
35,39
35,40
35,41
35,42
36,38
36,39
36,40
36,41
36,42
37,38
37,40
37,41
38,43
38,46
39,43
39,44
39,45
40,43
40,44
40,46
41,43
41,44
41,45
41,46
42,43
42,44
42,45
42,46
43,47
43,48
43,49
43,50
43,51
44,47
44,50
45,47
45,48
45,49
45,50
45,51
46,47
46,48
47,52
47,53
47,54
47,55
48,52
48,53
48,54
48,55
48,56
49,55
49,56
50,52
50,53
50,54
50,55
50,56
51,52
51,53
51,54
51,55
51,56
52,57
53,57
53,58
54,59
55,57
55,58
55,59
56,57
56,58
56,59
57,60
57,61
57,62
58,60
58,61
58,62
59,60
59,61
59,62
60,63
60,64
62,63
62,64
62,65
63,85
64,66
64,68
65,66
65,67
66,70
66,72
66,87
67,68
67,69
68,73
68,77
69,71
69,72
70,74
70,82
71,77
72,76
73,75
73,88
74,93
76,80
76,83
77,78
77,79
78,81
79,82
80,99
81,84
81,85
81,87
81,90
82,83
82,86
82,88
83,90
83,94
84,89
85,92
85,93
87,91
88,89
90,96
91,97
92,95
93,95
94,98
95,99
95,100
96,98
96,99

<end>
